param set_len = 26;
param target = 3871371;
param values := [0] 522653 [1] 217996 [2] 281587 [3] 184827 [4] 237411 [5] 281337 [6] 261791 [7] 98284 [8] 393135 [9] 204450 [10] 350251 [11] 220735 [12] 171210 [13] 158187 [14] 366070 [15] 166468 [16] 304174 [17] 343937 [18] 366953 [19] 399445 [20] 446434 [21] 200487 [22] 427290 [23] 271775 [24] 125674 [25] 430815 ;
